MATILDA_Graphs/g0061.col
c File: data_files/evolved_graphs/g0061.col
c
c Auto generated graph
c
p edge 100 1848
e 1 11
e 1 19
e 1 60
e 1 67
e 1 68
e 1 69
e 1 70
e 1 71
e 1 72
e 1 78
e 1 83
e 1 84
e 1 85
e 1 86
e 1 88
e 1 89
e 1 90
e 1 91
e 1 93
e 1 94
e 1 96
e 1 99
e 2 15
e 2 52
e 2 53
e 2 54
e 2 60
e 2 67
e 2 68
e 2 69
e 2 70
e 2 72
e 2 74
e 2 75
e 2 77
e 2 78
e 2 79
e 2 80
e 2 81
e 2 82
e 2 85
e 2 88
e 2 89
e 2 90
e 2 91
e 2 92
e 2 94
e 2 95
e 2 96
e 2 97
e 3 43
e 3 46
e 3 68
e 3 69
e 3 70
e 3 71
e 3 74
e 3 75
e 3 76
e 3 77
e 3 79
e 3 80
e 3 84
e 3 85
e 3 87
e 3 89
e 3 90
e 3 91
e 3 92
e 3 93
e 3 94
e 3 95
e 3 96
e 3 98
e 4 25
e 4 46
e 4 69
e 4 70
e 4 72
e 4 75
e 4 76
e 4 81
e 4 85
e 4 86
e 4 87
e 4 88
e 4 89
e 4 90
e 4 91
e 4 92
e 4 93
e 4 94
e 4 96
e 4 97
e 5 7
e 5 15
e 5 48
e 5 53
e 5 60
e 5 64
e 5 68
e 5 69
e 5 70
e 5 71
e 5 74
e 5 76
e 5 77
e 5 78
e 5 79
e 5 81
e 5 82
e 5 90
e 5 91
e 5 92
e 5 93
e 5 94
e 5 95
e 5 96
e 5 100
e 6 25
e 6 34
e 6 39
e 6 43
e 6 63
e 6 66
e 6 68
e 6 69
e 6 70
e 6 71
e 6 72
e 6 81
e 6 82
e 6 84
e 6 87
e 6 88
e 6 89
e 6 90
e 6 91
e 6 92
e 6 93
e 6 94
e 6 97
e 6 100
e 7 10
e 7 31
e 7 34
e 7 47
e 7 68
e 7 69
e 7 70
e 7 71
e 7 72
e 7 73
e 7 74
e 7 75
e 7 76
e 7 79
e 7 81
e 7 84
e 7 85
e 7 86
e 7 89
e 7 90
e 7 91
e 7 94
e 7 95
e 7 96
e 7 97
e 7 98
e 8 45
e 8 67
e 8 69
e 8 70
e 8 71
e 8 72
e 8 74
e 8 75
e 8 79
e 8 80
e 8 81
e 8 84
e 8 85
e 8 88
e 8 89
e 8 93
e 8 94
e 8 95
e 8 100
e 9 16
e 9 26
e 9 37
e 9 38
e 9 68
e 9 69
e 9 70
e 9 71
e 9 72
e 9 73
e 9 78
e 9 81
e 9 82
e 9 84
e 9 89
e 9 90
e 9 91
e 9 92
e 9 93
e 9 94
e 9 95
e 9 96
e 9 97
e 9 98
e 9 99
e 9 100
e 10 18
e 10 43
e 10 63
e 10 68
e 10 69
e 10 70
e 10 71
e 10 72
e 10 77
e 10 78
e 10 80
e 10 84
e 10 87
e 10 90
e 10 92
e 10 93
e 10 94
e 10 95
e 10 96
e 11 14
e 11 26
e 11 27
e 11 62
e 11 68
e 11 69
e 11 70
e 11 71
e 11 72
e 11 75
e 11 78
e 11 81
e 11 83
e 11 84
e 11 88
e 11 90
e 11 91
e 11 92
e 11 94
e 11 95
e 11 96
e 11 98
e 11 100
e 12 59
e 12 68
e 12 69
e 12 70
e 12 71
e 12 72
e 12 75
e 12 77
e 12 81
e 12 82
e 12 83
e 12 84
e 12 89
e 12 90
e 12 91
e 12 92
e 12 93
e 12 95
e 12 96
e 13 26
e 13 54
e 13 65
e 13 69
e 13 70
e 13 71
e 13 72
e 13 77
e 13 78
e 13 79
e 13 80
e 13 81
e 13 83
e 13 84
e 13 86
e 13 89
e 13 90
e 13 91
e 13 92
e 13 93
e 13 94
e 13 95
e 13 96
e 13 98
e 14 18
e 14 24
e 14 28
e 14 29
e 14 34
e 14 43
e 14 48
e 14 68
e 14 69
e 14 70
e 14 71
e 14 72
e 14 82
e 14 84
e 14 85
e 14 87
e 14 88
e 14 89
e 14 90
e 14 91
e 14 93
e 14 94
e 14 95
e 14 96
e 14 97
e 15 22
e 15 29
e 15 54
e 15 63
e 15 68
e 15 69
e 15 70
e 15 71
e 15 72
e 15 74
e 15 77
e 15 79
e 15 82
e 15 87
e 15 88
e 15 89
e 15 90
e 15 92
e 15 93
e 15 94
e 15 95
e 15 96
e 15 97
e 16 33
e 16 40
e 16 62
e 16 65
e 16 68
e 16 69
e 16 70
e 16 71
e 16 72
e 16 78
e 16 82
e 16 83
e 16 88
e 16 89
e 16 91
e 16 93
e 16 94
e 16 96
e 16 98
e 17 59
e 17 68
e 17 69
e 17 70
e 17 71
e 17 72
e 17 80
e 17 84
e 17 87
e 17 88
e 17 89
e 17 90
e 17 91
e 17 92
e 17 93
e 17 94
e 17 95
e 17 96
e 17 100
e 18 29
e 18 38
e 18 68
e 18 69
e 18 70
e 18 71
e 18 72
e 18 73
e 18 74
e 18 76
e 18 77
e 18 78
e 18 79
e 18 80
e 18 81
e 18 82
e 18 84
e 18 85
e 18 87
e 18 89
e 18 90
e 18 91
e 18 92
e 18 93
e 18 94
e 18 95
e 18 96
e 18 98
e 18 100
e 19 44
e 19 69
e 19 70
e 19 71
e 19 72
e 19 78
e 19 79
e 19 85
e 19 87
e 19 89
e 19 90
e 19 91
e 19 92
e 19 95
e 19 96
e 19 98
e 20 53
e 20 63
e 20 64
e 20 67
e 20 68
e 20 69
e 20 70
e 20 71
e 20 72
e 20 73
e 20 77
e 20 82
e 20 83
e 20 88
e 20 89
e 20 90
e 20 91
e 20 92
e 20 94
e 20 95
e 20 96
e 20 98
e 20 99
e 20 100
e 21 27
e 21 31
e 21 34
e 21 55
e 21 56
e 21 68
e 21 69
e 21 70
e 21 71
e 21 72
e 21 73
e 21 74
e 21 75
e 21 78
e 21 79
e 21 81
e 21 83
e 21 84
e 21 85
e 21 86
e 21 88
e 21 89
e 21 90
e 21 92
e 21 93
e 21 94
e 21 95
e 21 96
e 21 97
e 21 98
e 21 100
e 22 40
e 22 47
e 22 68
e 22 69
e 22 70
e 22 71
e 22 72
e 22 73
e 22 74
e 22 75
e 22 77
e 22 80
e 22 82
e 22 84
e 22 86
e 22 90
e 22 92
e 22 93
e 22 94
e 22 95
e 22 96
e 22 97
e 23 68
e 23 69
e 23 70
e 23 71
e 23 72
e 23 73
e 23 74
e 23 79
e 23 81
e 23 82
e 23 83
e 23 84
e 23 86
e 23 89
e 23 90
e 23 91
e 23 92
e 23 93
e 23 94
e 23 95
e 23 97
e 24 67
e 24 68
e 24 69
e 24 70
e 24 71
e 24 72
e 24 74
e 24 75
e 24 76
e 24 77
e 24 79
e 24 81
e 24 90
e 24 92
e 24 94
e 24 95
e 24 96
e 25 32
e 25 33
e 25 66
e 25 68
e 25 69
e 25 70
e 25 71
e 25 72
e 25 73
e 25 75
e 25 84
e 25 87
e 25 89
e 25 90
e 25 91
e 25 92
e 25 93
e 25 94
e 25 95
e 25 96
e 25 100
e 26 31
e 26 40
e 26 56
e 26 68
e 26 69
e 26 70
e 26 71
e 26 72
e 26 74
e 26 75
e 26 78
e 26 79
e 26 83
e 26 87
e 26 89
e 26 91
e 26 92
e 26 93
e 26 94
e 26 96
e 27 44
e 27 68
e 27 69
e 27 70
e 27 71
e 27 72
e 27 73
e 27 74
e 27 75
e 27 77
e 27 78
e 27 79
e 27 80
e 27 91
e 27 92
e 27 94
e 27 96
e 27 99
e 28 36
e 28 66
e 28 68
e 28 70
e 28 71
e 28 72
e 28 74
e 28 77
e 28 80
e 28 83
e 28 87
e 28 88
e 28 89
e 28 90
e 28 91
e 28 92
e 28 93
e 28 94
e 28 96
e 29 31
e 29 65
e 29 68
e 29 69
e 29 70
e 29 71
e 29 72
e 29 77
e 29 79
e 29 82
e 29 83
e 29 84
e 29 86
e 29 87
e 29 91
e 29 94
e 29 95
e 29 96
e 30 63
e 30 68
e 30 69
e 30 70
e 30 71
e 30 72
e 30 73
e 30 74
e 30 76
e 30 77
e 30 81
e 30 82
e 30 84
e 30 87
e 30 89
e 30 90
e 30 93
e 30 95
e 30 96
e 30 97
e 30 100
e 31 50
e 31 56
e 31 67
e 31 68
e 31 69
e 31 70
e 31 71
e 31 74
e 31 75
e 31 76
e 31 77
e 31 80
e 31 82
e 31 84
e 31 86
e 31 87
e 31 89
e 31 90
e 31 91
e 31 92
e 31 93
e 31 94
e 32 65
e 32 68
e 32 69
e 32 70
e 32 71
e 32 72
e 32 74
e 32 75
e 32 78
e 32 80
e 32 82
e 32 84
e 32 87
e 32 88
e 32 89
e 32 91
e 32 92
e 32 93
e 32 94
e 32 95
e 32 96
e 32 100
e 33 46
e 33 63
e 33 66
e 33 68
e 33 69
e 33 70
e 33 71
e 33 72
e 33 74
e 33 76
e 33 77
e 33 78
e 33 79
e 33 83
e 33 85
e 33 86
e 33 87
e 33 88
e 33 89
e 33 90
e 33 92
e 33 93
e 33 96
e 33 100
e 34 48
e 34 49
e 34 51
e 34 66
e 34 68
e 34 69
e 34 70
e 34 71
e 34 72
e 34 74
e 34 75
e 34 77
e 34 79
e 34 80
e 34 83
e 34 90
e 34 92
e 34 93
e 34 94
e 34 95
e 34 96
e 35 40
e 35 58
e 35 60
e 35 69
e 35 72
e 35 73
e 35 74
e 35 75
e 35 76
e 35 77
e 35 78
e 35 79
e 35 82
e 35 83
e 35 84
e 35 85
e 35 86
e 35 87
e 35 88
e 35 89
e 35 90
e 35 91
e 35 92
e 35 94
e 35 95
e 35 96
e 35 97
e 35 99
e 36 37
e 36 66
e 36 68
e 36 70
e 36 71
e 36 72
e 36 73
e 36 76
e 36 79
e 36 80
e 36 81
e 36 82
e 36 83
e 36 84
e 36 86
e 36 89
e 36 91
e 36 92
e 36 93
e 36 94
e 36 95
e 36 96
e 36 97
e 36 98
e 36 99
e 36 100
e 37 38
e 37 42
e 37 68
e 37 69
e 37 70
e 37 71
e 37 73
e 37 74
e 37 75
e 37 76
e 37 78
e 37 80
e 37 81
e 37 82
e 37 83
e 37 85
e 37 87
e 37 88
e 37 89
e 37 90
e 37 91
e 37 93
e 37 94
e 37 96
e 37 97
e 37 99
e 37 100
e 38 50
e 38 52
e 38 67
e 38 70
e 38 73
e 38 74
e 38 75
e 38 76
e 38 77
e 38 78
e 38 79
e 38 80
e 38 81
e 38 82
e 38 83
e 38 86
e 38 87
e 38 89
e 38 90
e 38 92
e 38 93
e 38 94
e 38 95
e 38 99
e 38 100
e 39 59
e 39 69
e 39 70
e 39 71
e 39 74
e 39 75
e 39 77
e 39 78
e 39 80
e 39 82
e 39 83
e 39 85
e 39 87
e 39 89
e 39 90
e 39 91
e 39 92
e 39 93
e 39 94
e 39 99
e 40 51
e 40 59
e 40 60
e 40 69
e 40 70
e 40 71
e 40 72
e 40 73
e 40 75
e 40 77
e 40 78
e 40 82
e 40 83
e 40 84
e 40 85
e 40 86
e 40 87
e 40 90
e 40 92
e 40 93
e 40 94
e 40 95
e 40 96
e 40 97
e 40 98
e 40 99
e 40 100
e 41 47
e 41 50
e 41 68
e 41 69
e 41 70
e 41 71
e 41 73
e 41 75
e 41 76
e 41 77
e 41 78
e 41 79
e 41 80
e 41 81
e 41 82
e 41 83
e 41 84
e 41 85
e 41 86
e 41 88
e 41 89
e 41 90
e 41 91
e 41 92
e 41 93
e 41 95
e 41 96
e 41 97
e 41 99
e 41 100
e 42 49
e 42 51
e 42 63
e 42 65
e 42 68
e 42 69
e 42 70
e 42 71
e 42 73
e 42 74
e 42 75
e 42 78
e 42 79
e 42 81
e 42 84
e 42 85
e 42 86
e 42 87
e 42 88
e 42 89
e 42 90
e 42 93
e 42 94
e 42 95
e 42 96
e 42 98
e 42 99
e 42 100
e 43 69
e 43 71
e 43 72
e 43 73
e 43 75
e 43 78
e 43 79
e 43 81
e 43 82
e 43 83
e 43 84
e 43 86
e 43 87
e 43 88
e 43 89
e 43 90
e 43 92
e 43 94
e 43 95
e 43 96
e 43 97
e 43 98
e 43 99
e 43 100
e 44 65
e 44 68
e 44 70
e 44 71
e 44 72
e 44 73
e 44 75
e 44 76
e 44 77
e 44 78
e 44 79
e 44 80
e 44 81
e 44 82
e 44 83
e 44 84
e 44 85
e 44 87
e 44 89
e 44 90
e 44 91
e 44 92
e 44 93
e 44 94
e 44 95
e 44 96
e 44 97
e 44 98
e 44 99
e 44 100
e 45 48
e 45 57
e 45 60
e 45 69
e 45 70
e 45 71
e 45 73
e 45 74
e 45 75
e 45 76
e 45 77
e 45 78
e 45 79
e 45 80
e 45 81
e 45 82
e 45 83
e 45 84
e 45 85
e 45 86
e 45 87
e 45 88
e 45 90
e 45 91
e 45 94
e 45 95
e 45 97
e 45 98
e 45 100
e 46 66
e 46 68
e 46 69
e 46 71
e 46 72
e 46 73
e 46 79
e 46 81
e 46 84
e 46 85
e 46 87
e 46 90
e 46 91
e 46 92
e 46 95
e 46 97
e 46 98
e 46 99
e 46 100
e 47 48
e 47 64
e 47 90
e 47 97
e 48 82
e 48 84
e 49 51
e 49 68
e 49 69
e 49 70
e 49 71
e 49 72
e 49 73
e 49 74
e 49 75
e 49 76
e 49 77
e 49 78
e 49 79
e 49 80
e 49 81
e 49 82
e 49 83
e 49 84
e 49 85
e 49 86
e 49 87
e 49 88
e 49 89
e 49 90
e 49 91
e 49 92
e 49 93
e 49 94
e 49 95
e 49 96
e 49 97
e 49 98
e 49 99
e 49 100
e 50 59
e 50 68
e 50 69
e 50 70
e 50 71
e 50 72
e 50 73
e 50 74
e 50 75
e 50 76
e 50 77
e 50 78
e 50 79
e 50 80
e 50 81
e 50 82
e 50 83
e 50 84
e 50 85
e 50 86
e 50 87
e 50 88
e 50 89
e 50 90
e 50 91
e 50 92
e 50 93
e 50 94
e 50 95
e 50 96
e 50 97
e 50 98
e 50 99
e 50 100
e 51 62
e 51 67
e 51 68
e 51 69
e 51 70
e 51 71
e 51 72
e 51 73
e 51 74
e 51 75
e 51 76
e 51 77
e 51 78
e 51 79
e 51 80
e 51 81
e 51 82
e 51 83
e 51 84
e 51 85
e 51 86
e 51 87
e 51 88
e 51 90
e 51 91
e 51 92
e 51 93
e 51 94
e 51 95
e 51 96
e 51 97
e 51 98
e 51 99
e 51 100
e 52 68
e 52 69
e 52 70
e 52 71
e 52 72
e 52 73
e 52 74
e 52 75
e 52 76
e 52 77
e 52 78
e 52 79
e 52 80
e 52 81
e 52 82
e 52 83
e 52 84
e 52 85
e 52 86
e 52 87
e 52 88
e 52 89
e 52 90
e 52 91
e 52 92
e 52 93
e 52 94
e 52 95
e 52 96
e 52 97
e 52 98
e 52 99
e 52 100
e 53 54
e 53 66
e 53 68
e 53 69
e 53 70
e 53 71
e 53 72
e 53 73
e 53 74
e 53 75
e 53 76
e 53 77
e 53 78
e 53 79
e 53 80
e 53 81
e 53 82
e 53 83
e 53 84
e 53 85
e 53 86
e 53 87
e 53 88
e 53 90
e 53 91
e 53 92
e 53 93
e 53 94
e 53 95
e 53 96
e 53 97
e 53 98
e 53 99
e 53 100
e 54 64
e 54 68
e 54 69
e 54 70
e 54 71
e 54 72
e 54 73
e 54 74
e 54 75
e 54 76
e 54 77
e 54 78
e 54 79
e 54 80
e 54 81
e 54 82
e 54 83
e 54 84
e 54 85
e 54 86
e 54 87
e 54 88
e 54 89
e 54 90
e 54 91
e 54 92
e 54 93
e 54 94
e 54 95
e 54 96
e 54 97
e 54 98
e 54 99
e 54 100
e 55 68
e 55 69
e 55 70
e 55 71
e 55 72
e 55 73
e 55 74
e 55 75
e 55 76
e 55 77
e 55 78
e 55 79
e 55 80
e 55 81
e 55 82
e 55 83
e 55 84
e 55 85
e 55 86
e 55 87
e 55 88
e 55 89
e 55 90
e 55 91
e 55 92
e 55 93
e 55 94
e 55 95
e 55 96
e 55 97
e 55 98
e 55 99
e 56 66
e 56 68
e 56 69
e 56 70
e 56 71
e 56 72
e 56 73
e 56 74
e 56 75
e 56 76
e 56 77
e 56 78
e 56 79
e 56 80
e 56 81
e 56 82
e 56 83
e 56 84
e 56 85
e 56 86
e 56 87
e 56 88
e 56 89
e 56 90
e 56 91
e 56 92
e 56 93
e 56 94
e 56 95
e 56 96
e 56 97
e 56 98
e 56 99
e 56 100
e 57 58
e 57 68
e 57 69
e 57 70
e 57 71
e 57 72
e 57 73
e 57 74
e 57 75
e 57 76
e 57 77
e 57 78
e 57 79
e 57 80
e 57 81
e 57 82
e 57 83
e 57 84
e 57 85
e 57 86
e 57 87
e 57 88
e 57 89
e 57 90
e 57 91
e 57 92
e 57 93
e 57 94
e 57 95
e 57 96
e 57 97
e 57 98
e 57 99
e 57 100
e 58 65
e 58 66
e 58 68
e 58 70
e 58 71
e 58 72
e 58 73
e 58 74
e 58 75
e 58 76
e 58 77
e 58 78
e 58 79
e 58 80
e 58 81
e 58 82
e 58 83
e 58 84
e 58 85
e 58 86
e 58 87
e 58 88
e 58 89
e 58 90
e 58 91
e 58 92
e 58 93
e 58 94
e 58 95
e 58 96
e 58 97
e 58 98
e 58 99
e 58 100
e 59 68
e 59 69
e 59 70
e 59 71
e 59 72
e 59 73
e 59 74
e 59 75
e 59 77
e 59 78
e 59 80
e 59 81
e 59 82
e 59 83
e 59 84
e 59 85
e 59 86
e 59 87
e 59 88
e 59 89
e 59 91
e 59 92
e 59 93
e 59 94
e 59 95
e 59 96
e 59 97
e 59 98
e 59 99
e 59 100
e 60 64
e 60 65
e 60 66
e 60 68
e 60 69
e 60 70
e 60 71
e 60 72
e 60 73
e 60 74
e 60 75
e 60 76
e 60 77
e 60 78
e 60 79
e 60 80
e 60 81
e 60 82
e 60 83
e 60 84
e 60 85
e 60 86
e 60 87
e 60 88
e 60 89
e 60 90
e 60 91
e 60 92
e 60 93
e 60 94
e 60 95
e 60 97
e 60 98
e 60 99
e 60 100
e 61 68
e 61 69
e 61 70
e 61 71
e 61 72
e 61 73
e 61 74
e 61 75
e 61 76
e 61 77
e 61 78
e 61 79
e 61 80
e 61 81
e 61 82
e 61 83
e 61 84
e 61 85
e 61 86
e 61 87
e 61 88
e 61 89
e 61 90
e 61 91
e 61 92
e 61 93
e 61 94
e 61 95
e 61 96
e 61 97
e 61 98
e 61 99
e 61 100
e 62 67
e 62 68
e 62 70
e 62 71
e 62 72
e 62 73
e 62 74
e 62 75
e 62 76
e 62 77
e 62 78
e 62 79
e 62 80
e 62 81
e 62 82
e 62 83
e 62 84
e 62 85
e 62 87
e 62 88
e 62 89
e 62 90
e 62 91
e 62 92
e 62 93
e 62 94
e 62 95
e 62 96
e 62 97
e 62 98
e 62 99
e 62 100
e 63 67
e 63 68
e 63 69
e 63 70
e 63 71
e 63 72
e 63 73
e 63 74
e 63 75
e 63 76
e 63 77
e 63 78
e 63 80
e 63 81
e 63 82
e 63 83
e 63 84
e 63 85
e 63 86
e 63 87
e 63 88
e 63 89
e 63 90
e 63 91
e 63 92
e 63 93
e 63 94
e 63 95
e 63 96
e 63 97
e 63 98
e 63 99
e 63 100
e 64 68
e 64 69
e 64 70
e 64 71
e 64 72
e 64 73
e 64 74
e 64 75
e 64 77
e 64 78
e 64 79
e 64 80
e 64 81
e 64 82
e 64 83
e 64 84
e 64 85
e 64 86
e 64 87
e 64 88
e 64 89
e 64 91
e 64 92
e 64 93
e 64 94
e 64 95
e 64 96
e 64 97
e 64 98
e 64 99
e 64 100
e 65 69
e 65 70
e 65 71
e 65 72
e 65 73
e 65 74
e 65 75
e 65 76
e 65 77
e 65 78
e 65 79
e 65 80
e 65 81
e 65 82
e 65 83
e 65 84
e 65 85
e 65 86
e 65 87
e 65 88
e 65 89
e 65 90
e 65 91
e 65 92
e 65 93
e 65 94
e 65 95
e 65 96
e 65 97
e 65 98
e 65 100
e 66 68
e 66 69
e 66 70
e 66 71
e 66 72
e 66 73
e 66 74
e 66 75
e 66 76
e 66 77
e 66 78
e 66 79
e 66 80
e 66 81
e 66 82
e 66 83
e 66 84
e 66 85
e 66 86
e 66 87
e 66 88
e 66 89
e 66 90
e 66 91
e 66 92
e 66 93
e 66 94
e 66 95
e 66 96
e 66 97
e 66 98
e 66 99
e 66 100
e 67 68
e 67 69
e 67 70
e 67 71
e 67 72
e 67 73
e 67 74
e 67 75
e 67 76
e 67 77
e 67 78
e 67 79
e 67 80
e 67 81
e 67 82
e 67 83
e 67 85
e 67 86
e 67 87
e 67 88
e 67 89
e 67 90
e 67 91
e 67 92
e 67 93
e 67 94
e 67 95
e 67 96
e 67 97
e 67 98
e 67 99
e 67 100
e 68 72
e 68 77
e 68 79
e 68 85
e 68 86
e 68 87
e 68 91
e 68 93
e 68 96
e 68 97
e 68 98
e 69 79
e 69 84
e 69 85
e 69 87
e 69 89
e 69 93
e 69 96
e 69 97
e 70 74
e 70 81
e 70 82
e 70 85
e 70 90
e 70 96
e 71 77
e 71 79
e 71 80
e 71 83
e 71 84
e 71 86
e 71 87
e 71 88
e 71 92
e 71 93
e 71 94
e 71 95
e 71 96
e 71 98
e 71 99
e 72 77
e 72 79
e 72 83
e 72 87
e 72 89
e 72 90
e 72 93
e 72 94
e 72 95
e 72 96
e 72 100
e 73 77
e 73 78
e 73 86
e 73 90
e 73 91
e 73 94
e 73 99
e 74 77
e 74 81
e 74 82
e 74 88
e 74 89
e 74 91
e 74 92
e 74 93
e 74 95
e 74 96
e 74 98
e 75 81
e 75 85
e 75 86
e 75 88
e 75 92
e 75 93
e 75 95
e 75 96
e 75 97
e 75 99
e 76 78
e 76 79
e 76 80
e 76 81
e 76 82
e 76 83
e 76 88
e 76 90
e 76 91
e 76 92
e 76 93
e 76 95
e 77 99
e 78 95
e 78 96
e 78 97
e 79 94
e 79 98
e 80 94
e 80 98
e 81 96
e 82 97
e 82 98
e 83 89
e 83 96
e 83 98
e 83 100
e 84 88
e 84 97
e 84 98
e 85 87
e 85 100
e 86 97
e 87 96
e 87 97
e 87 98
e 87 99
e 87 100
e 88 96
e 88 97
e 88 98
e 88 99
e 88 100
e 89 97
e 89 98
e 89 99
e 89 100
e 90 98
e 90 99
e 91 98
e 91 99
e 91 100
e 92 93
e 92 97
e 92 98
e 92 99
e 92 100
e 93 98
e 93 99
e 93 100
e 94 97
e 94 98
e 94 99
e 94 100
e 95 97
e 95 98
e 95 99
e 95 100
e 96 97
e 96 98
e 96 99
e 96 100
