MATILDA_Graphs/g0061.sol
SET_INDEX
79947
329778
408580
598055
598734
1192452
1575035
EOF
